     Program PWSCF v.6.7MaX starts on  9Sep2021 at 16: 8:34

     Reading input from alnscf.in

     Current dimensions of program PWSCF are:
     Max number of different atomic species (ntypx) = 10
     Max number of k-points (npk) =  40000
     Max angular momentum in pseudopotentials (lmaxx) =  3
     file Al.pbesol-n-kjpaw_psl.1.0.0.UPF: wavefunction(s)  3S 3P renormalized

     Subspace diagonalization in iterative solution of the eigenvalue problem:
     a serial algorithm will be used

     Message from routine setup:
     using ibrav=0 with symmetry is DISCOURAGED, use correct ibrav instead

     bravais-lattice index     =            0
     lattice parameter (alat)  =       5.8222  a.u.
     unit-cell volume          =     279.1033 (a.u.)^3
     number of atoms/cell      =            4
     number of atomic types    =            2
     number of electrons       =        16.00
     number of Kohn-Sham states=           12
     kinetic-energy cutoff     =      60.0000  Ry
     charge density cutoff     =     480.0000  Ry
     scf convergence threshold =      8.0E-10
     mixing beta               =       0.4000
     number of iterations used =            8  plain     mixing
     Exchange-correlation= PBESOL
                           (   1   4  10   8   0   0   0)

     celldm(1)=   5.822246  celldm(2)=   0.000000  celldm(3)=   0.000000
     celldm(4)=   0.000000  celldm(5)=   0.000000  celldm(6)=   0.000000

     crystal axes: (cart. coord. in units of alat)
               a(1) = (   1.000000   0.000000   0.000000 )
               a(2) = (  -0.500000   0.866025   0.000000 )
               a(3) = (   0.000000   0.000000   1.632911 )

     reciprocal axes: (cart. coord. in units 2 pi/alat)
               b(1) = (  1.000000  0.577350 -0.000000 )
               b(2) = (  0.000000  1.154701  0.000000 )
               b(3) = (  0.000000 -0.000000  0.612403 )

     PseudoPot. # 1 for Al read from file:
     ./pseudo/Al.pbesol-n-kjpaw_psl.1.0.0.UPF
     MD5 check sum: 3401bcfaaf5f9b08e46a00870a1ef39d
     Pseudo is Projector augmented-wave + core cor, Zval =  3.0
     Generated using "atomic" code by A. Dal Corso  v.6.0 svn rev. 13079
     Shape of augmentation charge: PSQ
     Using radial grid of 1135 points,  6 beta functions with:
                l(1) =   0
                l(2) =   0
                l(3) =   1
                l(4) =   1
                l(5) =   2
                l(6) =   2
     Q(r) pseudized with 0 coefficients

     PseudoPot. # 2 for N  read from file:
     ./pseudo/N.pbesol-theos.UPF
     MD5 check sum: 1b64827339d390a5a22afef3ff345c9d
     Pseudo is Ultrasoft + core correction, Zval =  5.0
     Generated using "atomic" code by A. Dal Corso  v.5.1
     Using radial grid of 1085 points,  4 beta functions with:
                l(1) =   0
                l(2) =   0
                l(3) =   1
                l(4) =   1
     Q(r) pseudized with 0 coefficients

     atomic species   valence    mass     pseudopotential
        Al             3.00    26.98154     Al( 1.00)
        N              5.00    14.00670     N ( 1.00)

      4 Sym. Ops. (no inversion) found ( 2 have fractional translation)

                                    s                        frac. trans.

      isym =  1     identity

 cryst.   s( 1) = (     1          0          0      )
                  (     0          1          0      )
                  (     0          0          1      )

 cart.    s( 1) = (  1.0000000  0.0000000  0.0000000 )
                  (  0.0000000  1.0000000  0.0000000 )
                  (  0.0000000  0.0000000  1.0000000 )

      isym =  2     180 deg rotation - cart. axis [0,0,1]

 cryst.   s( 2) = (    -1          0          0      )    f =(  0.0000000 )
                  (     0         -1          0      )       (  0.0000000 )
                  (     0          0          1      )       (  0.5000000 )

 cart.    s( 2) = ( -1.0000000  0.0000000  0.0000000 )    f =(  0.0000000 )
                  (  0.0000000 -1.0000000  0.0000000 )       (  0.0000000 )
                  (  0.0000000  0.0000000  1.0000000 )       (  0.8164557 )

      isym =  3     inv. 180 deg rotation - cart. axis [0,1,0]

 cryst.   s( 3) = (     1          0          0      )    f =(  0.0000000 )
                  (    -1         -1          0      )       (  0.0000000 )
                  (     0          0          1      )       (  0.5000000 )

 cart.    s( 3) = (  1.0000000  0.0000000  0.0000000 )    f =(  0.0000000 )
                  (  0.0000000 -1.0000000  0.0000000 )       (  0.0000000 )
                  (  0.0000000  0.0000000  1.0000000 )       (  0.8164557 )

      isym =  4     inv. 180 deg rotation - cart. axis [1,0,0]

 cryst.   s( 4) = (    -1          0          0      )
                  (     1          1          0      )
                  (     0          0          1      )

 cart.    s( 4) = ( -1.0000000  0.0000000  0.0000000 )
                  (  0.0000000  1.0000000  0.0000000 )
                  (  0.0000000  0.0000000  1.0000000 )

   Cartesian axes

     site n.     atom                  positions (alat units)
         1           Al  tau(   1) = (   0.5000000   0.2887329   0.8164557  )
         2           Al  tau(   2) = (   0.0000000   0.5772925   0.0000000  )
         3           N   tau(   3) = (   0.5000000   0.2887329   1.4402278  )
         4           N   tau(   4) = (   0.0000000   0.5772925   0.6237722  )

   Crystallographic axes

     site n.     atom                  positions (cryst. coord.)
         1           Al  tau(   1) = (  0.6667000  0.3334000  0.5000000  )
         2           Al  tau(   2) = (  0.3333000  0.6666000  0.0000000  )
         3           N   tau(   3) = (  0.6667000  0.3334000  0.8820000  )
         4           N   tau(   4) = (  0.3333000  0.6666000  0.3820000  )

     number of k points=   172  Marzari-Vanderbilt smearing, width (Ry)=  0.0147
                       cart. coord. in units 2pi/alat
        k(    1) = (   0.0000000   0.0000000   0.0000000), wk =   0.0019841
        k(    2) = (   0.0000000   0.0000000   0.0874862), wk =   0.0039683
        k(    3) = (   0.0000000   0.0000000   0.1749723), wk =   0.0039683
        k(    4) = (   0.0000000   0.0000000   0.2624585), wk =   0.0039683
        k(    5) = (   0.0000000   0.0962250   0.0000000), wk =   0.0039683
        k(    6) = (   0.0000000   0.0962250   0.0874862), wk =   0.0079365
        k(    7) = (   0.0000000   0.0962250   0.1749723), wk =   0.0079365
        k(    8) = (   0.0000000   0.0962250   0.2624585), wk =   0.0079365
        k(    9) = (   0.0000000   0.1924501   0.0000000), wk =   0.0039683
        k(   10) = (   0.0000000   0.1924501   0.0874862), wk =   0.0079365
        k(   11) = (   0.0000000   0.1924501   0.1749723), wk =   0.0079365
        k(   12) = (   0.0000000   0.1924501   0.2624585), wk =   0.0079365
        k(   13) = (   0.0000000   0.2886751   0.0000000), wk =   0.0039683
        k(   14) = (   0.0000000   0.2886751   0.0874862), wk =   0.0079365
        k(   15) = (   0.0000000   0.2886751   0.1749723), wk =   0.0079365
        k(   16) = (   0.0000000   0.2886751   0.2624585), wk =   0.0079365
        k(   17) = (   0.0000000   0.3849002   0.0000000), wk =   0.0039683
        k(   18) = (   0.0000000   0.3849002   0.0874862), wk =   0.0079365
        k(   19) = (   0.0000000   0.3849002   0.1749723), wk =   0.0079365
        k(   20) = (   0.0000000   0.3849002   0.2624585), wk =   0.0079365
        k(   21) = (   0.0000000   0.4811252   0.0000000), wk =   0.0039683
        k(   22) = (   0.0000000   0.4811252   0.0874862), wk =   0.0079365
        k(   23) = (   0.0000000   0.4811252   0.1749723), wk =   0.0079365
        k(   24) = (   0.0000000   0.4811252   0.2624585), wk =   0.0079365
        k(   25) = (   0.0000000  -0.5773503   0.0000000), wk =   0.0019841
        k(   26) = (   0.0000000  -0.5773503   0.0874862), wk =   0.0039683
        k(   27) = (   0.0000000  -0.5773503   0.1749723), wk =   0.0039683
        k(   28) = (   0.0000000  -0.5773503   0.2624585), wk =   0.0039683
        k(   29) = (   0.0833333   0.1443376   0.0000000), wk =   0.0079365
        k(   30) = (   0.0833333   0.1443376   0.0874862), wk =   0.0158730
        k(   31) = (   0.0833333   0.1443376   0.1749723), wk =   0.0158730
        k(   32) = (   0.0833333   0.1443376   0.2624585), wk =   0.0158730
        k(   33) = (   0.0833333   0.2405626   0.0000000), wk =   0.0079365
        k(   34) = (   0.0833333   0.2405626   0.0874862), wk =   0.0158730
        k(   35) = (   0.0833333   0.2405626   0.1749723), wk =   0.0158730
        k(   36) = (   0.0833333   0.2405626   0.2624585), wk =   0.0158730
        k(   37) = (   0.0833333   0.3367877   0.0000000), wk =   0.0079365
        k(   38) = (   0.0833333   0.3367877   0.0874862), wk =   0.0158730
        k(   39) = (   0.0833333   0.3367877   0.1749723), wk =   0.0158730
        k(   40) = (   0.0833333   0.3367877   0.2624585), wk =   0.0158730
        k(   41) = (   0.0833333   0.4330127   0.0000000), wk =   0.0079365
        k(   42) = (   0.0833333   0.4330127   0.0874862), wk =   0.0158730
        k(   43) = (   0.0833333   0.4330127   0.1749723), wk =   0.0158730
        k(   44) = (   0.0833333   0.4330127   0.2624585), wk =   0.0158730
        k(   45) = (   0.0833333   0.5292377   0.0000000), wk =   0.0079365
        k(   46) = (   0.0833333   0.5292377   0.0874862), wk =   0.0158730
        k(   47) = (   0.0833333   0.5292377   0.1749723), wk =   0.0158730
        k(   48) = (   0.0833333   0.5292377   0.2624585), wk =   0.0158730
        k(   49) = (   0.1666667   0.2886751   0.0000000), wk =   0.0079365
        k(   50) = (   0.1666667   0.2886751   0.0874862), wk =   0.0158730
        k(   51) = (   0.1666667   0.2886751   0.1749723), wk =   0.0158730
        k(   52) = (   0.1666667   0.2886751   0.2624585), wk =   0.0158730
        k(   53) = (   0.1666667   0.3849002   0.0000000), wk =   0.0079365
        k(   54) = (   0.1666667   0.3849002   0.0874862), wk =   0.0158730
        k(   55) = (   0.1666667   0.3849002   0.1749723), wk =   0.0158730
        k(   56) = (   0.1666667   0.3849002   0.2624585), wk =   0.0158730
        k(   57) = (   0.1666667   0.4811252   0.0000000), wk =   0.0079365
        k(   58) = (   0.1666667   0.4811252   0.0874862), wk =   0.0158730
        k(   59) = (   0.1666667   0.4811252   0.1749723), wk =   0.0158730
        k(   60) = (   0.1666667   0.4811252   0.2624585), wk =   0.0158730
[...]
        k(  158) = (  -0.4166667   0.4330127   0.0874862), wk =   0.0158730
        k(  159) = (  -0.4166667   0.4330127   0.1749723), wk =   0.0158730
        k(  160) = (  -0.4166667   0.4330127   0.2624585), wk =   0.0158730
        k(  161) = (   0.5000000   0.0000000   0.0000000), wk =   0.0039683
        k(  162) = (   0.5000000   0.0000000   0.0874862), wk =   0.0079365
        k(  163) = (   0.5000000   0.0000000   0.1749723), wk =   0.0079365
        k(  164) = (   0.5000000   0.0000000   0.2624585), wk =   0.0079365
        k(  165) = (  -0.3333333   0.4811252   0.0000000), wk =   0.0079365
        k(  166) = (   0.5833333   0.0481125   0.0000000), wk =   0.0079365
        k(  167) = (  -0.3333333   0.4811252   0.0874862), wk =   0.0158730
        k(  168) = (   0.5833333   0.0481125   0.0874862), wk =   0.0158730
        k(  169) = (  -0.3333333   0.4811252   0.1749723), wk =   0.0158730
        k(  170) = (   0.5833333   0.0481125   0.1749723), wk =   0.0158730
        k(  171) = (  -0.3333333   0.4811252   0.2624585), wk =   0.0158730
        k(  172) = (   0.5833333   0.0481125   0.2624585), wk =   0.0158730

                       cryst. coord.
        k(    1) = (   0.0000000   0.0000000   0.0000000), wk =   0.0019841
        k(    2) = (   0.0000000   0.0000000   0.1428571), wk =   0.0039683
        k(    3) = (   0.0000000   0.0000000   0.2857143), wk =   0.0039683
        k(    4) = (   0.0000000   0.0000000   0.4285714), wk =   0.0039683
        k(    5) = (   0.0000000   0.0833333   0.0000000), wk =   0.0039683
        k(    6) = (   0.0000000   0.0833333   0.1428571), wk =   0.0079365
        k(    7) = (   0.0000000   0.0833333   0.2857143), wk =   0.0079365
        k(    8) = (   0.0000000   0.0833333   0.4285714), wk =   0.0079365
        k(    9) = (   0.0000000   0.1666667   0.0000000), wk =   0.0039683
        k(   10) = (   0.0000000   0.1666667   0.1428571), wk =   0.0079365
        k(   11) = (   0.0000000   0.1666667   0.2857143), wk =   0.0079365
        k(   12) = (   0.0000000   0.1666667   0.4285714), wk =   0.0079365
        k(   13) = (   0.0000000   0.2500000   0.0000000), wk =   0.0039683
        k(   14) = (   0.0000000   0.2500000   0.1428571), wk =   0.0079365
        k(   15) = (   0.0000000   0.2500000   0.2857143), wk =   0.0079365
        k(   16) = (   0.0000000   0.2500000   0.4285714), wk =   0.0079365
        k(   17) = (   0.0000000   0.3333333   0.0000000), wk =   0.0039683
        k(   18) = (   0.0000000   0.3333333   0.1428571), wk =   0.0079365
        k(   19) = (   0.0000000   0.3333333   0.2857143), wk =   0.0079365
        k(   20) = (   0.0000000   0.3333333   0.4285714), wk =   0.0079365
        k(   21) = (   0.0000000   0.4166667   0.0000000), wk =   0.0039683
        k(   22) = (   0.0000000   0.4166667   0.1428571), wk =   0.0079365
        k(   23) = (   0.0000000   0.4166667   0.2857143), wk =   0.0079365
        k(   24) = (   0.0000000   0.4166667   0.4285714), wk =   0.0079365
        k(   25) = (   0.0000000  -0.5000000   0.0000000), wk =   0.0019841
        k(   26) = (   0.0000000  -0.5000000   0.1428571), wk =   0.0039683
        k(   27) = (   0.0000000  -0.5000000   0.2857143), wk =   0.0039683
        k(   28) = (   0.0000000  -0.5000000   0.4285714), wk =   0.0039683
        k(   29) = (   0.0833333   0.0833333   0.0000000), wk =   0.0079365
        k(   30) = (   0.0833333   0.0833333   0.1428571), wk =   0.0158730
        k(   31) = (   0.0833333   0.0833333   0.2857143), wk =   0.0158730
        k(   32) = (   0.0833333   0.0833333   0.4285714), wk =   0.0158730
        k(   33) = (   0.0833333   0.1666667   0.0000000), wk =   0.0079365
        k(   34) = (   0.0833333   0.1666667   0.1428571), wk =   0.0158730
        k(   35) = (   0.0833333   0.1666667   0.2857143), wk =   0.0158730
        k(   36) = (   0.0833333   0.1666667   0.4285714), wk =   0.0158730
        k(   37) = (   0.0833333   0.2500000   0.0000000), wk =   0.0079365
        k(   38) = (   0.0833333   0.2500000   0.1428571), wk =   0.0158730
        k(   39) = (   0.0833333   0.2500000   0.2857143), wk =   0.0158730
        k(   40) = (   0.0833333   0.2500000   0.4285714), wk =   0.0158730
        k(   41) = (   0.0833333   0.3333333   0.0000000), wk =   0.0079365
        k(   42) = (   0.0833333   0.3333333   0.1428571), wk =   0.0158730
        k(   43) = (   0.0833333   0.3333333   0.2857143), wk =   0.0158730
        k(   44) = (   0.0833333   0.3333333   0.4285714), wk =   0.0158730
        k(   45) = (   0.0833333   0.4166667   0.0000000), wk =   0.0079365
        k(   46) = (   0.0833333   0.4166667   0.1428571), wk =   0.0158730
        k(   47) = (   0.0833333   0.4166667   0.2857143), wk =   0.0158730
        k(   48) = (   0.0833333   0.4166667   0.4285714), wk =   0.0158730
        k(   49) = (   0.1666667   0.1666667   0.0000000), wk =   0.0079365
        k(   50) = (   0.1666667   0.1666667   0.1428571), wk =   0.0158730
        k(   51) = (   0.1666667   0.1666667   0.2857143), wk =   0.0158730
        k(   52) = (   0.1666667   0.1666667   0.4285714), wk =   0.0158730
        k(   53) = (   0.1666667   0.2500000   0.0000000), wk =   0.0079365
        k(   54) = (   0.1666667   0.2500000   0.1428571), wk =   0.0158730
        k(   55) = (   0.1666667   0.2500000   0.2857143), wk =   0.0158730
        k(   56) = (   0.1666667   0.2500000   0.4285714), wk =   0.0158730
        k(   57) = (   0.1666667   0.3333333   0.0000000), wk =   0.0079365
        k(   58) = (   0.1666667   0.3333333   0.1428571), wk =   0.0158730
        k(   59) = (   0.1666667   0.3333333   0.2857143), wk =   0.0158730
        k(   60) = (   0.1666667   0.3333333   0.4285714), wk =   0.0158730
[...]
        k(  158) = (  -0.4166667   0.5833333   0.1428571), wk =   0.0158730
        k(  159) = (  -0.4166667   0.5833333   0.2857143), wk =   0.0158730
        k(  160) = (  -0.4166667   0.5833333   0.4285714), wk =   0.0158730
        k(  161) = (   0.5000000  -0.2500000   0.0000000), wk =   0.0039683
        k(  162) = (   0.5000000  -0.2500000   0.1428571), wk =   0.0079365
        k(  163) = (   0.5000000  -0.2500000   0.2857143), wk =   0.0079365
        k(  164) = (   0.5000000  -0.2500000   0.4285714), wk =   0.0079365
        k(  165) = (  -0.3333333   0.5833333   0.0000000), wk =   0.0079365
        k(  166) = (   0.5833333  -0.2500000   0.0000000), wk =   0.0079365
        k(  167) = (  -0.3333333   0.5833333   0.1428571), wk =   0.0158730
        k(  168) = (   0.5833333  -0.2500000   0.1428571), wk =   0.0158730
        k(  169) = (  -0.3333333   0.5833333   0.2857143), wk =   0.0158730
        k(  170) = (   0.5833333  -0.2500000   0.2857143), wk =   0.0158730
        k(  171) = (  -0.3333333   0.5833333   0.4285714), wk =   0.0158730
        k(  172) = (   0.5833333  -0.2500000   0.4285714), wk =   0.0158730

     Initial potential from superposition of free atoms

     starting charge   15.99561, renormalised to   16.00000
     Starting wfcs are   16 randomized atomic wfcs
     Checking if some PAW data can be deallocated...

     Self-consistent Calculation

     iteration #  1     ecut=    60.00 Ry     beta= 0.40
     Davidson diagonalization with overlap
     ethr =  1.00E-02,  avg # of iterations =  4.4

     total energy              =    -117.48827472 Ry
     estimated scf accuracy    <       1.16238917 Ry

[...]

     total energy              =    -117.74477681 Ry
     estimated scf accuracy    <          8.6E-10 Ry

     iteration # 17     ecut=    60.00 Ry     beta= 0.40
     Davidson diagonalization with overlap
     ethr =  5.39E-12,  avg # of iterations =  1.2

     End of self-consistent calculation

          k = 0.0000 0.0000 0.0000 (  2189 PWs)   bands (ev):

    -8.1142  -5.9853   0.9591   6.3169   6.3187   6.9219   6.9229   7.0548
    11.3093  13.9588  17.6096  18.4091

     occupation numbers
     1.0000   1.0000   1.0000   1.0000   1.0000   1.0000   1.0000   1.0000
     0.0000   0.0000   0.0000   0.0000

[...]

          k =-0.0833 0.0481 0.0000 (  2199 PWs)   bands (ev):

[...]

          k =-0.3333 0.4811 0.2625 (  2203 PWs)   bands (ev):

[...]

          k = 0.5833 0.0481 0.2625 (  2203 PWs)   bands (ev):

    -5.5869  -5.4892   2.0091   2.1349   3.4321   3.8255   6.0180   6.2578
    13.5065  14.0418  15.4325  15.6239

     occupation numbers
     1.0000   1.0000   1.0000   1.0000   1.0000   1.0000   1.0000   1.0000
     0.0000   0.0000   0.0000   0.0000

     the Fermi energy is     8.5629 ev

!    total energy              =    -117.74477681 Ry
     estimated scf accuracy    <          2.3E-10 Ry
     smearing contrib. (-TS)   =       0.00000000 Ry
     internal energy E=F+TS    =    -117.74477681 Ry

     The total energy is F=E-TS. E is the sum of the following terms:
     one-electron contribution =      -1.48919932 Ry
     hartree contribution      =      11.21072306 Ry
     xc contribution           =     -16.40216881 Ry
     ewald contribution        =     -43.64225207 Ry
     one-center paw contrib.   =     -67.42187968 Ry
      -> PAW hartree energy AE =       5.06743063 Ry
      -> PAW hartree energy PS =      -5.05878743 Ry
      -> PAW xc energy AE      =     -72.19817216 Ry
      -> PAW xc energy PS      =       4.76764927 Ry
      -> total E_H with PAW    =      11.21936626 Ry
      -> total E_XC with PAW   =     -83.83269169 Ry

     convergence has been achieved in  17 iterations

     Forces acting on atoms (cartesian axes, Ry/au):

     atom    1 type  1   force =     0.00000000   -0.00021578    0.00918313
     atom    2 type  1   force =     0.00000000    0.00021578    0.00918313
     atom    3 type  2   force =     0.00000000   -0.00021617   -0.00918313
     atom    4 type  2   force =     0.00000000    0.00021617   -0.00918313
     The non-local contrib.  to forces
     atom    1 type  1   force =     0.00000000   -0.00031059    0.01724634
     atom    2 type  1   force =     0.00000000    0.00031059    0.01724634
     atom    3 type  2   force =    -0.00000000   -0.00029804    0.00602979
     atom    4 type  2   force =     0.00000000    0.00029804    0.00602979
     The ionic contribution  to forces
     atom    1 type  1   force =    -0.00000000   -0.00086564    0.09274002
     atom    2 type  1   force =    -0.00000000    0.00086564    0.09274002
     atom    3 type  2   force =    -0.00000000   -0.00090985   -0.09274002
     atom    4 type  2   force =     0.00000000    0.00090985   -0.09274002
     The local contribution  to forces
     atom    1 type  1   force =    -0.00000000    0.00092247   -0.09862450
     atom    2 type  1   force =     0.00000000   -0.00092247   -0.09862450
     atom    3 type  2   force =     0.00000000    0.00098670    0.07738045
     atom    4 type  2   force =    -0.00000000   -0.00098670    0.07738045
     The core correction contribution to forces
     atom    1 type  1   force =     0.00000000    0.00003798   -0.00217852
     atom    2 type  1   force =    -0.00000000   -0.00003798   -0.00217852
     atom    3 type  2   force =     0.00000000    0.00000509    0.00014723
     atom    4 type  2   force =    -0.00000000   -0.00000509    0.00014723
     The Hubbard contrib.    to forces
     atom    1 type  1   force =     0.00000000    0.00000000    0.00000000
     atom    2 type  1   force =     0.00000000    0.00000000    0.00000000
     atom    3 type  2   force =     0.00000000    0.00000000    0.00000000
     atom    4 type  2   force =     0.00000000    0.00000000    0.00000000
     The SCF correction term to forces
     atom    1 type  1   force =    -0.00000000   -0.00000000   -0.00000010
     atom    2 type  1   force =    -0.00000000    0.00000000   -0.00000010
     atom    3 type  2   force =     0.00000000   -0.00000007   -0.00000045
     atom    4 type  2   force =    -0.00000000    0.00000007   -0.00000045

     Total force =     0.018371     Total SCF correction =     0.000001

     Computing stress (Cartesian axis) and pressure

          total   stress  (Ry/bohr**3)                   (kbar)     P=       27.81
   0.00038142   0.00000000   0.00000000           56.11        0.00        0.00
   0.00000000   0.00037726   0.00000000            0.00       55.50        0.00
   0.00000000   0.00000000  -0.00019154            0.00        0.00      -28.18

     kinetic stress (kbar)   9593.94      0.00      0.00
                                0.00   9594.20      0.00
                                0.00      0.00   9584.38

     local   stress (kbar)  -5135.41     -0.00      0.00
                               -0.00  -5129.17      0.00
                                0.00      0.00  -5029.41

     nonloc. stress (kbar)   3732.06     -0.00      0.00
                               -0.00   3731.53     -0.00
                                0.00     -0.00   3668.84

     hartree stress (kbar)   1949.79     -0.00      0.00
                               -0.00   1949.04     -0.00
                                0.00     -0.00   2009.94

     exc-cor stress (kbar)  -1026.19     -0.00      0.00
                               -0.00  -1026.20     -0.00
                                0.00     -0.00  -1026.46

     corecor stress (kbar)  -1454.50     -0.00      0.00
                               -0.00  -1454.43     -0.00
                                0.00     -0.00  -1446.27

     ewald   stress (kbar)  -7603.57      0.00      0.00
                                0.00  -7609.46     -0.00
                                0.00     -0.00  -7789.19

     hubbard stress (kbar)      0.00      0.00      0.00
                                0.00      0.00      0.00
                                0.00      0.00      0.00

     DFT-D   stress (kbar)      0.00      0.00      0.00
                                0.00      0.00      0.00
                                0.00      0.00      0.00

     XDM     stress (kbar)      0.00      0.00      0.00
                                0.00      0.00      0.00
                                0.00      0.00      0.00

     dft-nl  stress (kbar)      0.00      0.00      0.00
                                0.00      0.00      0.00
                                0.00      0.00      0.00

     TS-vdW  stress (kbar)      0.00      0.00      0.00
                                0.00      0.00      0.00
                                0.00      0.00      0.00

     Writing output data file ./out/aiida.save/

     General routines

     Parallel routines

     PAW routines

   This run was terminated on:  16:12:26   9Sep2021

   JOB DONE.